
List of user-set options:

                                    Name   Value                used
                           linear_solver = mumps                 yes
                  ma57_automatic_scaling = yes                    no
                                max_iter = 2000                  yes
                             mu_strategy = adaptive              yes
                             output_file = GPOPS_MarkIPOPTinfo.txt  yes
                             print_level = 5                     yes
                      print_user_options = yes                   yes
                                     tol = 1e-007                yes
This is Ipopt version 3.11.0, running with linear solver mumps.

Number of nonzeros in equality constraint Jacobian...:     2245
Number of nonzeros in inequality constraint Jacobian.:        0
Number of nonzeros in Lagrangian Hessian.............:      979

Total number of variables............................:      433
                     variables with only lower bounds:        0
                variables with lower and upper bounds:      433
                     variables with only upper bounds:        0
Total number of equality constraints.................:      321
Total number of inequality constraints...............:        1
        inequality constraints with only lower bounds:        0
   inequality constraints with lower and upper bounds:        1
        inequality constraints with only upper bounds:        0

iter    objective    inf_pr   inf_du lg(mu)  ||d||  lg(rg) alpha_du alpha_pr  ls
   0 5.0000000e+000 2.39e+002 9.97e+001   0.0 0.00e+000    -  0.00e+000 0.00e+000   0
   1 4.9999010e-002 2.35e+002 3.23e+002   0.5 2.85e+000    -  9.90e-001 1.74e-002f  1
   2 1.6005015e+001 1.93e+002 8.24e+002   2.0 2.34e+000    -  2.86e-001 1.92e-001f  1
   3 1.6024956e+001 1.92e+002 2.68e+004   1.7 9.05e-001   4.0 9.34e-001 5.05e-003h  1
   4 2.3237736e+001 1.42e+002 6.47e+004   2.4 1.68e+000   3.5 1.00e+000 2.82e-001f  1
   5 2.7940523e+001 1.36e+002 3.55e+005   4.4 7.74e+000   4.9 1.38e-001 4.87e-002f  1
   6 2.8230782e+001 1.31e+002 3.77e+005   3.8 1.22e+000   5.3 1.90e-001 4.10e-002h  1
   7 2.8925167e+001 1.05e+002 4.28e+006   3.4 2.53e+000   5.7 2.92e-002 2.11e-001h  1
   8 2.9040847e+001 1.02e+002 4.05e+006  -2.4 3.55e+000   6.1 1.12e-002 2.82e-002h  1
   9 2.9107378e+001 1.01e+002 1.38e+007   4.0 2.94e+000   6.6 4.64e-001 1.69e-002f  1
iter    objective    inf_pr   inf_du lg(mu)  ||d||  lg(rg) alpha_du alpha_pr  ls
  10 3.3478608e+001 6.72e+001 2.05e+007   4.7 1.29e+000   6.1 7.90e-001 3.75e-001h  1
  11 3.3826204e+001 6.10e+001 3.43e+007   4.8 4.19e-001   7.4 6.92e-001 9.56e-002h  1
  12 3.7047280e+001 2.75e+001 1.39e+008   4.8 6.93e-001   6.9 2.90e-001 6.80e-001h  1
  13 4.0670305e+001 1.21e+001 1.49e+008   4.8 3.68e-001   7.4 4.67e-001 7.53e-001h  1
  14 4.1641742e+001 9.44e+000 1.14e+008   4.8 3.57e-001   8.7 5.82e-001 2.35e-001h  1
  15 4.2074759e+001 8.60e+000 2.54e+008   4.8 2.56e-001   9.1 9.64e-001 9.08e-002h  1
  16 4.6675240e+001 3.58e+000 1.37e+008   4.7 2.23e-001   8.6 1.00e+000 7.43e-001h  1
  17 5.2790282e+001 1.53e+000 3.11e+008   4.8 1.10e-001   9.1 4.95e-001 7.12e-001h  1
  18 6.9447590e+001 2.34e-001 6.38e+007   4.3 1.67e-001   8.6 1.00e+000 1.00e+000h  1
  19 7.6779558e+001 7.26e-003 9.36e+006   4.0 7.33e-002   8.1 1.00e+000 1.00e+000h  1
iter    objective    inf_pr   inf_du lg(mu)  ||d||  lg(rg) alpha_du alpha_pr  ls
  20 7.6980671e+001 1.02e-005 8.56e+004   2.3 2.01e-003   7.6 1.00e+000 1.00e+000f  1
  21 7.6981146e+001 4.90e-008 6.09e+002   0.6 4.02e-005   7.2 1.00e+000 1.00e+000f  1
  22 7.6979379e+001 1.97e-009 8.36e+001  -1.3 1.77e-005   6.7 1.00e+000 1.00e+000f  1
  23 7.6973960e+001 3.63e-009 8.54e+001  -3.1 5.42e-005   6.2 1.00e+000 1.00e+000f  1
  24 7.6957701e+001 1.09e-008 8.55e+001  -5.0 1.63e-004   5.7 1.00e+000 1.00e+000f  1
  25 7.6908927e+001 9.85e-008 8.54e+001  -6.9 4.88e-004   5.2 1.00e+000 1.00e+000f  1
  26 7.6762644e+001 8.86e-007 8.54e+001  -8.6 1.46e-003   4.8 1.00e+000 1.00e+000f  1
  27 7.6324143e+001 7.96e-006 8.54e+001 -10.2 4.39e-003   4.3 1.00e+000 1.00e+000f  1
  28 7.5011783e+001 7.14e-005 8.52e+001 -11.0 1.31e-002   3.8 1.00e+000 1.00e+000f  1
  29 7.1103340e+001 6.35e-004 8.45e+001 -11.0 3.91e-002   3.3 1.00e+000 1.00e+000f  1
iter    objective    inf_pr   inf_du lg(mu)  ||d||  lg(rg) alpha_du alpha_pr  ls
  30 5.9646005e+001 5.55e-003 8.26e+001 -11.0 1.15e-001   2.9 1.00e+000 1.00e+000f  1
  31 5.6775063e+001 5.43e-003 8.20e+001  -9.0 3.16e-001   2.4 1.00e+000 9.07e-002f  1
  32 5.6723577e+001 5.43e-003 8.20e+001  -7.0 8.46e-001   1.9 1.00e+000 6.09e-004f  1
  33 5.1658874e+001 6.45e-003 8.13e+001  -5.7 2.00e+000   1.4 1.00e+000 2.53e-002f  1
  34 3.3206542e+001 2.21e-002 7.77e+001  -5.1 8.99e-001   1.9 1.00e+000 2.05e-001f  1
  35 2.9750101e+001 2.25e-002 7.67e+001  -3.6 1.49e+000   1.4 1.00e+000 2.32e-002f  1
  36 2.9750002e-001 8.65e-002 6.47e+001  -3.4 7.38e-001   1.8 1.00e+000 3.99e-001f  1
  37 2.9740102e-003 8.56e-002 6.21e+001  -2.3 2.93e-001   1.3 1.00e+000 1.00e-002f  1
  38 1.1845192e-003 2.18e-002 2.96e+000  -2.7 3.98e-002   1.8 1.00e+000 1.00e+000h  1
  39 1.0855192e-005 6.02e-003 1.09e+000  -4.1 2.08e-002   1.3 1.00e+000 9.53e-001h  1
iter    objective    inf_pr   inf_du lg(mu)  ||d||  lg(rg) alpha_du alpha_pr  ls
  40 -2.1265161e-007 1.52e-003 3.60e-001  -5.8 1.11e-002   0.8 1.00e+000 1.00e+000h  1
  41 -9.5712018e-007 3.84e-004 1.25e-001  -7.1 5.29e-003   0.3 1.00e+000 1.00e+000h  1
  42 -9.8398751e-007 9.70e-005 4.07e-002  -7.8 2.46e-003  -0.2 1.00e+000 1.00e+000h  1
  43 -9.9612606e-007 2.45e-005 1.22e-002  -8.4 1.13e-003  -0.6 1.00e+000 1.00e+000h  1
  44 -9.9901687e-007 6.13e-006 3.41e-003  -9.0 5.10e-004  -1.1 1.00e+000 1.00e+000h  1
  45 -9.9999335e-007 1.54e-006 8.92e-004 -11.0 2.52e-004  -1.6 1.00e+000 1.00e+000h  1
  46 -9.9998977e-007 3.87e-007 2.09e-004 -11.0 1.25e-004  -2.1 1.00e+000 1.00e+000h  1
  47 -9.9998978e-007 9.93e-008 1.38e-005 -11.0 6.32e-005  -2.5 1.00e+000 1.00e+000h  1
  48 -9.9998975e-007 2.77e-008 8.69e-005 -11.0 6.22e-005  -3.0 1.00e+000 1.00e+000h  1
  49 -9.9998956e-007 1.10e-008 3.83e-004 -11.0 1.72e-004  -3.5 1.00e+000 1.00e+000h  1
iter    objective    inf_pr   inf_du lg(mu)  ||d||  lg(rg) alpha_du alpha_pr  ls
  50 -9.9997858e-007 1.08e-008 9.28e+001  -9.2 8.69e-003  -4.0 6.12e-001 1.81e-002h  3
  51 -9.1704023e-007 9.85e-009 8.22e+001  -9.5 2.08e-002  -4.5 1.24e-003 8.71e-002h  4
  52 -8.3544252e-007 8.96e-009 7.44e+001  -9.5 2.91e-002  -4.9 1.00e+000 9.06e-002h  4
  53 -7.7250455e-007 8.27e-009 6.89e+001  -9.5 3.59e-002  -5.4 1.84e-001 7.72e-002h  4
  54 -7.1009209e-007 7.59e-009 6.31e+001  -9.5 4.00e-002  -5.9 8.49e-001 8.25e-002h  4
  55 2.1760588e-008 4.07e-010 2.05e-001  -9.5 1.76e-002  -5.5 3.85e-001 1.00e+000H  1
  56 1.8509144e-008 3.69e-009 8.85e-003  -9.5 2.70e-002  -5.9 7.36e-001 1.00e+000H  1
  57 1.8088203e-008 2.15e-009 3.45e-005  -9.5 6.53e-003  -5.5 1.00e+000 1.00e+000h  1
  58 1.2304924e-008 2.27e-009 2.91e-004 -10.0 1.31e-002  -6.0 1.00e+000 1.00e+000h  1
  59 1.0411660e-008 1.05e-008 1.01e-003 -10.1 2.75e-002  -6.5 4.85e-001 1.00e+000h  1
iter    objective    inf_pr   inf_du lg(mu)  ||d||  lg(rg) alpha_du alpha_pr  ls
  60 8.6390228e-009 6.07e-008 1.77e-003 -10.1 1.20e-001  -6.9 1.85e-001 1.00e+000h  1
  61 6.6901373e-009 6.31e-009 5.15e-004 -10.1 2.11e-002  -6.5 6.69e-001 9.59e-001h  1
  62 6.7336636e-009 5.04e-009 6.55e-004 -10.1 6.08e-002  -7.0 6.73e-001 1.25e-001f  4
  63 8.0078999e-009 3.36e-009 1.32e-004 -10.1 1.33e-002  -6.6 1.00e+000 1.00e+000h  1
  64 6.9538486e-009 2.18e-009 1.98e-004 -10.6 2.42e-002  -7.0 1.00e+000 1.00e+000h  1
  65 6.8612116e-009 2.25e-009 2.05e-004 -10.7 5.28e-001  -7.5 1.21e-001 2.36e-002h  2
  66 6.3238970e-009 6.79e-009 1.12e-004 -10.7 3.07e-002  -7.1 1.00e+000 1.00e+000h  1
  67 5.9483807e-009 8.93e-010 2.86e-005 -10.7 4.18e-002  -7.6 1.00e+000 1.00e+000h  1
  68 5.8344218e-009 1.46e-010 2.42e-006 -11.0 1.55e-002  -7.1 1.00e+000 1.00e+000h  1
  69 5.6372740e-009 1.89e-009 3.10e-005 -11.0 3.29e-002  -7.6 1.00e+000 1.00e+000h  1
iter    objective    inf_pr   inf_du lg(mu)  ||d||  lg(rg) alpha_du alpha_pr  ls
  70 5.6156024e-009 1.85e-009 3.04e-005 -11.0 1.83e+000  -8.1 2.35e-002 2.14e-002h  2
  71 5.4436178e-009 1.83e-009 2.75e-005 -11.0 4.15e-002  -7.7 1.00e+000 1.00e+000h  1
  72 5.4834692e-009 1.57e-008 2.59e-004 -10.5 7.43e-002  -8.2 1.00e+000 1.00e+000h  1
  73 5.3008209e-009 8.98e-010 3.66e-005 -10.6 2.43e-002  -7.7 1.00e+000 1.00e+000h  1
  74 5.2694793e-009 2.56e-009 4.30e-005 -10.6 2.56e-002  -7.3 1.00e+000 1.00e+000h  1
  75 4.3512083e-009 2.79e-008 1.41e-003 -10.6 7.02e-001    -  2.27e-001 6.49e-001h  1
  76 4.2813308e-009 1.91e-008 1.04e-003 -10.6 1.27e-001  -7.8 1.00e+000 2.50e-001f  3
  77 4.3549719e-009 9.38e-009 3.86e-004 -10.6 1.24e-001    -  1.00e+000 1.00e+000h  1
  78 4.8854754e-009 6.34e-009 1.72e-004 -10.6 6.09e-002  -8.3 1.00e+000 1.00e+000h  1
  79 4.9689808e-009 6.89e-010 2.34e-006 -10.6 2.45e-002  -7.8 1.00e+000 1.00e+000h  1
iter    objective    inf_pr   inf_du lg(mu)  ||d||  lg(rg) alpha_du alpha_pr  ls
  80 4.8697046e-009 1.19e-010 1.60e-006 -11.0 9.30e-003  -7.4 1.00e+000 1.00e+000h  1
  81 4.7744031e-009 4.20e-008 6.13e-004 -11.0 1.51e-001  -7.9 1.99e-001 1.00e+000h  1
  82 4.3255344e-009 9.29e-009 2.85e-004 -11.0 1.02e-001  -8.4 1.00e+000 1.00e+000h  1
  83 4.6144089e-009 8.91e-010 2.07e-005 -11.0 3.99e-002  -8.8 1.00e+000 1.00e+000h  1
  84 4.6738113e-009 2.86e-010 1.60e-006 -11.0 5.67e-002    -  1.00e+000 1.00e+000h  1
  85 4.6774140e-009 1.37e-011 7.88e-008 -11.0 5.92e-003    -  1.00e+000 1.00e+000h  1

Number of Iterations....: 85

                                   (scaled)                 (unscaled)
Objective...............:  4.6774140116281187e-009   4.6774140116667695e-009
Dual infeasibility......:  7.8794775025637401e-008   7.8794775026288517e-008
Constraint violation....:  1.3662569421113051e-011   1.3662569421113051e-011
Complementarity.........:  1.0001798926370254e-011   1.0001798926452901e-011
Overall NLP error.......:  7.8794775025637401e-008   7.8794775026288517e-008


Number of objective function evaluations             = 130
Number of objective gradient evaluations             = 86
Number of equality constraint evaluations            = 130
Number of inequality constraint evaluations          = 130
Number of equality constraint Jacobian evaluations   = 86
Number of inequality constraint Jacobian evaluations = 86
Number of Lagrangian Hessian evaluations             = 85
Total CPU secs in IPOPT (w/o function evaluations)   =      0.279
Total CPU secs in NLP function evaluations           =      0.945

EXIT: Optimal Solution Found.
